0000000000000000
0000000000000000
0000000000000000
0011100000111000
0001110000110000
0000111000110000
0000111110110000
0000111111111000
0001111111100000
0001100111000000
0011110011110000
0011110011100000
0111110001110000
0011010000111000
0000000000000000
0000000000000000
